
Gurobi 10.0.2 (win64) logging started Fri Jun 21 03:41:03 2024

Set parameter LogFile to value "log/log_difficulty1_MNL_DESKTOP-S7OVCUR_9_34.txt"
Gurobi Optimizer version 10.0.2 build v10.0.2rc0 (win64)

CPU model: Intel(R) Core(TM) i7-10510U CPU @ 1.80GHz, instruction set [SSE2|AVX|AVX2]
Thread count: 4 physical cores, 8 logical processors, using up to 8 threads

Optimize a model with 2020 rows, 676 columns and 4612 nonzeros
Model fingerprint: 0x6c799031
Variable types: 364 continuous, 312 integer (312 binary)
Coefficient statistics:
  Matrix range     [5e-03, 2e+02]
  Objective range  [1e+02, 6e+02]
  Bounds range     [1e+00, 1e+00]
  RHS range        [1e+00, 1e+00]
Found heuristic solution: objective -0.0000000
Presolve removed 224 rows and 104 columns
Presolve time: 0.03s
Presolved: 1796 rows, 572 columns, 4245 nonzeros
Found heuristic solution: objective 2135.4428129
Variable types: 308 continuous, 264 integer (264 binary)

Root relaxation: objective 1.554682e+04, 432 iterations, 0.02 seconds (0.00 work units)

    Nodes    |    Current Node    |     Objective Bounds      |     Work
 Expl Unexpl |  Obj  Depth IntInf | Incumbent    BestBd   Gap | It/Node Time

     0     0 15546.8195    0  164 2135.44281 15546.8195   628%     -    0s
H    0     0                    9096.7353206 15546.8195  70.9%     -    0s
H    0     0                    9207.1792732 15546.8195  68.9%     -    0s
H    0     0                    13276.581191 15546.8195  17.1%     -    0s
     0     0 14830.9601    0  174 13276.5812 14830.9601  11.7%     -    0s
H    0     0                    13347.008151 14822.1130  11.1%     -    0s
     0     0 14822.1130    0  179 13347.0082 14822.1130  11.1%     -    0s
     0     0 14822.1039    0  179 13347.0082 14822.1039  11.1%     -    0s
H    0     0                    13396.673976 14435.0753  7.75%     -    0s
H    0     0                    13773.227392 14435.0753  4.81%     -    0s
     0     0 14435.0753    0  184 13773.2274 14435.0753  4.81%     -    0s
     0     0 14421.7200    0  188 13773.2274 14421.7200  4.71%     -    0s
     0     0 14420.0431    0  189 13773.2274 14420.0431  4.70%     -    0s
H    0     0                    14271.598760 14420.0431  1.04%     -    0s
     0     0 14420.0431    0  189 14271.5988 14420.0431  1.04%     -    0s
H    0     0                    14277.973666 14420.0431  1.00%     -    0s
     0     0 14277.9737    0  165 14277.9737 14277.9737  0.00%     -    0s

Cutting planes:
  Gomory: 28
  Implied bound: 47
  MIR: 53
  Flow cover: 133
  RLT: 89
  Relax-and-lift: 12
  BQP: 11

Explored 1 nodes (1698 simplex iterations) in 0.40 seconds (0.13 work units)
Thread count was 8 (of 8 available processors)

Solution count 10: 14278 14271.6 13773.2 ... -0

Optimal solution found (tolerance 1.00e-04)
Best objective 1.427797366617e+04, best bound 1.427797366617e+04, gap 0.0000%
